
Gurobi 11.0.3 (win64) logging started Wed Sep  4 11:24:13 2024

Set parameter LogFile to value "C:\Users\ealvarezq\Desktop\E.Representative_days_based_on_Line_Benefits_OptModel\IEEE118_mod2_ByStages_nc90/openStarNet_IEEE118_mod2_ByStages_nc90.log"
Set parameter Method to value 2
Set parameter MIPFocus to value 1
Set parameter Presolve to value 2
Set parameter RINS to value 100
Set parameter MIPGap to value 0.01
Set parameter Threads to value 24
Set parameter TimeLimit to value 259200
Set parameter IterationLimit to value 760000000
Gurobi Optimizer version 11.0.3 build v11.0.3rc0 (win64 - Windows Server 2019.0 (17763.2))

CPU model: AMD Ryzen Threadripper PRO 3955WX 16-Cores, instruction set [SSE2|AVX|AVX2]
Thread count: 16 physical cores, 32 logical processors, using up to 24 threads

Optimize a model with 127893 rows, 94506 columns and 329358 nonzeros
Model fingerprint: 0x407c56cc
Variable types: 94472 continuous, 34 integer (34 binary)
Coefficient statistics:
  Matrix range     [3e-04, 9e+03]
  Objective range  [1e+00, 1e+00]
  Bounds range     [1e-04, 3e+00]
  RHS range        [2e-04, 3e+00]
Presolve removed 86420 rows and 43390 columns
Presolve time: 0.83s
Presolved: 41473 rows, 51116 columns, 151661 nonzeros
Variable types: 51082 continuous, 34 integer (34 binary)
Root relaxation presolved: 41473 rows, 51116 columns, 151661 nonzeros

Root barrier log...

Ordering time: 0.03s

Barrier statistics:
 Dense cols : 34
 AA' NZ     : 1.876e+05
 Factor NZ  : 7.269e+05 (roughly 40 MB of memory)
 Factor Ops : 1.518e+07 (less than 1 second per iteration)
 Threads    : 23

                  Objective                Residual
Iter       Primal          Dual         Primal    Dual     Compl     Time
   0   8.79185446e+06 -3.29615786e+09  1.55e+01 4.39e+03  1.18e+05     1s
   1   2.09420203e+06 -1.26927566e+09  3.40e+00 5.49e-08  2.44e+04     2s
   2   5.56809264e+05 -9.21701163e+08  6.41e-01 3.74e-08  9.79e+03     2s
   3   3.43848999e+05 -1.57200917e+08  2.22e-01 1.93e-08  1.61e+03     2s
   4   2.19001320e+05 -1.93401645e+07  1.52e-02 1.51e-09  1.65e+02     2s
   5   1.25613507e+05 -4.87059463e+06  8.56e-04 6.55e-10  4.08e+01     2s
   6   6.16908815e+04 -1.07428851e+06  1.65e-04 1.47e-10  9.27e+00     2s
   7   3.48813771e+04 -2.83212546e+05  5.19e-05 3.55e-11  2.60e+00     2s
   8   1.75893579e+04 -9.08160484e+04  1.48e-05 1.00e-11  8.84e-01     2s
   9   1.04031295e+04 -4.33085449e+04  7.83e-06 1.08e-11  4.38e-01     2s
  10   5.98667018e+03 -2.02483963e+04  3.80e-06 9.80e-12  2.14e-01     2s
  11   3.50934810e+03 -8.38502486e+03  1.79e-06 8.80e-12  9.70e-02     2s
  12   2.02777770e+03 -3.39763810e+03  7.25e-07 1.10e-11  4.43e-02     2s
  13   1.55959129e+03 -1.26876328e+03  4.27e-07 1.65e-11  2.31e-02     2s
  14   1.21791051e+03 -3.66653433e+02  2.29e-07 1.62e-11  1.29e-02     2s
  15   9.84178647e+02  1.92031599e+02  1.07e-07 2.02e-11  6.46e-03     2s
  16   9.00821041e+02  5.09128231e+02  6.78e-08 1.34e-11  3.20e-03     2s
  17   8.66245034e+02  5.64611572e+02  5.26e-08 1.48e-11  2.46e-03     2s
  18   8.39638981e+02  6.22802005e+02  4.10e-08 1.96e-11  1.77e-03     2s
  19   8.16187157e+02  6.47372715e+02  3.11e-08 2.32e-11  1.38e-03     2s
  20   7.90101987e+02  6.76521156e+02  2.01e-08 1.73e-11  9.26e-04     2s
  21   7.71109481e+02  7.01685019e+02  1.23e-08 1.28e-11  5.66e-04     2s
  22   7.55234768e+02  7.20811462e+02  6.06e-09 1.36e-11  2.81e-04     2s
  23   7.49261629e+02  7.29237585e+02  3.77e-09 1.39e-11  1.63e-04     2s
  24   7.45209340e+02  7.32042073e+02  2.27e-09 7.44e-12  1.07e-04     2s
  25   7.43456497e+02  7.34022565e+02  1.63e-09 8.34e-12  7.70e-05     2s
  26   7.41851510e+02  7.35851944e+02  1.05e-09 1.09e-11  4.89e-05     2s
  27   7.40806556e+02  7.36587663e+02  1.50e-09 9.09e-12  3.44e-05     2s
  28   7.39730709e+02  7.37594946e+02  7.80e-10 1.20e-11  1.74e-05     2s
  29   7.39412923e+02  7.38050261e+02  1.85e-09 1.02e-11  1.11e-05     2s
  30   7.39233836e+02  7.38580104e+02  1.05e-09 1.42e-11  5.33e-06     2s
  31   7.39055430e+02  7.38687733e+02  1.45e-09 6.70e-12  3.00e-06     3s
  32   7.39019810e+02  7.38721762e+02  1.18e-09 8.62e-12  2.43e-06     3s
  33   7.38943156e+02  7.38741980e+02  1.46e-09 5.17e-12  1.64e-06     3s
  34   7.38826066e+02  7.38758103e+02  1.22e-09 9.27e-12  5.54e-07     3s
  35   7.38798317e+02  7.38768452e+02  6.14e-10 1.00e-11  2.44e-07     3s
  36   7.38777248e+02  7.38770880e+02  1.97e-09 1.66e-11  5.19e-08     3s
  37   7.38772814e+02  7.38771707e+02  4.18e-09 6.51e-12  9.01e-09     3s
  38   7.38772225e+02  7.38771902e+02  1.36e-09 4.90e-12  2.64e-09     3s
  39   7.38772015e+02  7.38772011e+02  8.62e-09 7.71e-12  5.44e-11     3s

Barrier solved model in 39 iterations and 2.76 seconds (1.78 work units)
Optimal objective 7.38772015e+02


Root relaxation: objective 7.387720e+02, 3594 iterations, 2.21 seconds (1.40 work units)

    Nodes    |    Current Node    |     Objective Bounds      |     Work
 Expl Unexpl |  Obj  Depth IntInf | Incumbent    BestBd   Gap | It/Node Time

     0     0  738.77202    0   24          -  738.77202      -     -    3s
H    0     0                    6192.4097936  738.77202  88.1%     -    7s
H    0     0                    2521.4985389  738.77202  70.7%     -   12s
     0     0  756.80956    0   24 2521.49854  756.80956  70.0%     -   17s
H    0     0                    2245.2340193  756.80956  66.3%     -   20s
     0     0  758.01172    0   23 2245.23402  758.01172  66.2%     -   21s
     0     0  758.01172    0   23 2245.23402  758.01172  66.2%     -   22s
     0     0  758.43807    0   22 2245.23402  758.43807  66.2%     -   23s
     0     0  758.51869    0   22 2245.23402  758.51869  66.2%     -   24s
     0     0  758.51869    0   22 2245.23402  758.51869  66.2%     -   24s
     0     0  759.29305    0   20 2245.23402  759.29305  66.2%     -   26s
     0     0  759.29388    0   20 2245.23402  759.29388  66.2%     -   26s
     0     0  759.32004    0   20 2245.23402  759.32004  66.2%     -   27s
     0     0  759.32004    0   20 2245.23402  759.32004  66.2%     -   27s
     0     0  759.32004    0   20 2245.23402  759.32004  66.2%     -   29s
H    0     0                     854.1937187  759.32004  11.1%     -  263s
     0     2  759.32004    0   20  854.19372  759.32004  11.1%     -  265s
     1     4  790.27815    1   19  854.19372  759.47471  11.1%  3739  270s
     3     8  838.18334    2   16  854.19372  778.62764  8.85%  3133  285s
     7    12     cutoff    3       854.19372  786.37846  7.94%  3306  306s
    15    12  802.82147    4   15  854.19372  795.50896  6.87%  3421  315s
    27    22  816.87228    5   16  854.19372  799.65937  6.38%  2560  329s
    39    34  820.42932    6   15  854.19372  805.48771  5.70%  2135  333s
    61    53     cutoff    7       854.19372  807.48522  5.47%  1840  343s
    85    67  836.46515    8   11  854.19372  814.84398  4.61%  1521  346s
   109    67  841.61416    9   10  854.19372  815.09826  4.58%  1411  351s
   133    62  851.01965   10   10  854.19372  815.09826  4.58%  1367  362s
   164    59  852.99901   11    9  854.19372  815.09826  4.58%  1325  366s
   194    53     cutoff    9       854.19372  815.09826  4.58%  1240  370s
   224    52  852.11072   10   11  854.19372  815.09826  4.58%  1189  375s
   259    53     cutoff   11       854.19372  815.09826  4.58%  1112  383s
   295    41     cutoff   11       854.19372  820.00051  4.00%  1072  393s
   339    25     cutoff    9       854.19372  825.67837  3.34%  1046  400s
   373    18     cutoff    9       854.19372  825.67837  3.34%  1019  412s
   396    20  850.75081   10   10  854.19372  825.67837  3.34%  1059  421s
   413     3     cutoff   11       854.19372  833.25251  2.45%  1055  428s

Cutting planes:
  Gomory: 1
  Implied bound: 207
  MIR: 319
  Flow cover: 2

Explored 434 nodes (456706 simplex iterations) in 429.43 seconds (387.53 work units)
Thread count was 24 (of 32 available processors)

Solution count 4: 854.194 2245.23 2521.5 6192.41 

Optimal solution found (tolerance 1.00e-02)
Best objective 8.541937186998e+02, best bound 8.493733741623e+02, gap 0.5643%

Gurobi 11.0.3 (win64) logging started Wed Sep  4 11:32:10 2024

Set parameter LogFile to value "C:\Users\ealvarezq\Desktop\E.Representative_days_based_on_Line_Benefits_OptModel\IEEE118_mod2_ByStages_nc90/openStarNet_IEEE118_mod2_ByStages_nc90.log"
Set parameter Method to value 2
Set parameter MIPFocus to value 1
Set parameter Presolve to value 2
Set parameter RINS to value 100
Set parameter MIPGap to value 0.01
Set parameter Threads to value 24
Set parameter TimeLimit to value 259200
Set parameter IterationLimit to value 760000000
Gurobi Optimizer version 11.0.3 build v11.0.3rc0 (win64 - Windows Server 2019.0 (17763.2))

CPU model: AMD Ryzen Threadripper PRO 3955WX 16-Cores, instruction set [SSE2|AVX|AVX2]
Thread count: 16 physical cores, 32 logical processors, using up to 24 threads

Optimize a model with 127893 rows, 94472 columns and 317084 nonzeros
Model fingerprint: 0x9a5012a8
Coefficient statistics:
  Matrix range     [3e-04, 9e+03]
  Objective range  [1e+00, 1e+00]
  Bounds range     [1e-04, 3e+00]
  RHS range        [2e-04, 2e+02]
Presolve removed 95413 rows and 41552 columns
Presolve time: 0.26s
Presolved: 32480 rows, 53279 columns, 127582 nonzeros

Ordering time: 0.02s

Barrier statistics:
 AA' NZ     : 1.071e+05
 Factor NZ  : 4.279e+05 (roughly 40 MB of memory)
 Factor Ops : 6.208e+06 (less than 1 second per iteration)
 Threads    : 24

                  Objective                Residual
Iter       Primal          Dual         Primal    Dual     Compl     Time
   0   1.42349237e+07 -1.91450541e+09  8.44e+01 2.84e+02  6.24e+04     1s
   1   1.78795529e+06 -5.46612853e+08  9.41e+00 6.37e-12  8.60e+03     1s
   2   3.60263834e+05 -9.97176779e+07  1.07e+00 5.46e-12  1.14e+03     1s
   3   1.76848645e+05 -1.03854170e+07  2.41e-02 6.37e-12  9.31e+01     1s
   4   8.80386291e+04 -1.32998995e+06  1.70e-03 4.09e-12  1.22e+01     1s
   5   4.02896735e+04 -3.58343349e+05  4.30e-04 1.59e-12  3.43e+00     1s
   6   2.22103745e+04 -1.04761455e+05  1.67e-04 1.41e-12  1.09e+00     1s
   7   1.10086107e+04 -4.01723060e+04  6.49e-05 1.07e-12  4.40e-01     1s
   8   6.82996109e+03 -1.71297236e+04  3.52e-05 1.00e-12  2.06e-01     1s
   9   3.84470535e+03 -5.04040493e+03  1.67e-05 9.82e-13  7.63e-02     2s
  10   2.04430250e+03 -1.93907646e+03  6.00e-06 1.31e-12  3.42e-02     2s
  11   1.51971782e+03 -9.19474217e+02  3.12e-06 1.51e-12  2.10e-02     2s
  12   1.27364782e+03 -1.13766843e+02  1.86e-06 1.30e-12  1.19e-02     2s
  13   1.11411900e+03  2.68284946e+02  1.08e-06 9.86e-13  7.27e-03     2s
  14   1.01574195e+03  5.65754990e+02  6.31e-07 7.71e-13  3.87e-03     2s
  15   9.55810769e+02  6.79344291e+02  3.76e-07 1.07e-12  2.37e-03     2s
  16   9.19089680e+02  7.68134055e+02  2.29e-07 7.35e-13  1.30e-03     2s
  17   8.95506348e+02  8.08094995e+02  1.40e-07 7.77e-13  7.51e-04     2s
  18   8.76305248e+02  8.34257878e+02  7.19e-08 7.79e-13  3.61e-04     2s
  19   8.67782802e+02  8.43052773e+02  4.33e-08 1.11e-12  2.12e-04     2s
  20   8.58977672e+02  8.49747994e+02  1.45e-08 1.08e-12  7.93e-05     2s
  21   8.56372289e+02  8.52876872e+02  6.42e-09 7.22e-13  3.00e-05     2s
  22   8.55147089e+02  8.53510912e+02  2.74e-09 7.51e-13  1.41e-05     2s
  23   8.54955389e+02  8.53624363e+02  2.17e-09 9.05e-13  1.14e-05     2s
  24   8.54530349e+02  8.53887241e+02  9.38e-10 6.69e-13  5.52e-06     2s
  25   8.54329760e+02  8.54034426e+02  3.59e-10 9.50e-13  2.54e-06     2s
  26   8.54262340e+02  8.54135185e+02  1.80e-10 1.07e-12  1.09e-06     3s
  27   8.54216217e+02  8.54151139e+02  3.35e-10 1.38e-12  5.59e-07     3s
  28   8.54196611e+02  8.54182809e+02  2.95e-10 7.66e-13  1.19e-07     3s
  29   8.54194122e+02  8.54193378e+02  1.20e-10 1.96e-12  6.39e-09     3s
  30   8.54193730e+02  8.54193703e+02  3.10e-10 8.31e-13  2.31e-10     3s
  31   8.54193719e+02  8.54193719e+02  2.31e-10 1.61e-12  2.31e-13     3s

Barrier solved model in 31 iterations and 2.60 seconds (0.67 work units)
Optimal objective 8.54193719e+02

Crossover log...

    9224 DPushes remaining with DInf 0.0000000e+00                 3s
       0 DPushes remaining with DInf 0.0000000e+00                 3s

     326 PPushes remaining with PInf 0.0000000e+00                 3s
       0 PPushes remaining with PInf 0.0000000e+00                 3s

  Push phase complete: Pinf 0.0000000e+00, Dinf 1.9027353e-12      3s

Iteration    Objective       Primal Inf.    Dual Inf.      Time
    3713    8.5419372e+02   0.000000e+00   0.000000e+00      3s

Solved in 3713 iterations and 3.04 seconds (0.79 work units)
Optimal objective  8.541937187e+02
